10 5 9 8 9 10 5 5 7 8 6 9 7 5 11 6 8 5 10 7 
7 7 9 11 7 6 9 7 7 10 12 12 8 8 8 6 8 5 12 9 
10 11 9 6 7 6 11 11 9 9 10 6 6 12 7 7 7 6 12 8 
9 5 8 11 8 6 11 9 9 10 5 8 6 7 11 7 8 4 9 8 
6 7 8 8 7 9 4 5 7 8 9 6 8 4 5 10 8 13 3 8 
9 10 8 10 8 7 7 8 9 8 5 13 7 8 11 6 7 4 10 9 
8 7 7 10 8 6 7 8 7 8 5 6 7 11 11 11 8 4 9 7 
10 10 8 6 9 6 7 10 8 6 5 4 8 12 6 5 7 3 10 7 
10 6 7 10 8 8 9 6 8 9 9 12 7 8 9 10 9 5 13 8 
8 11 7 5 7 7 9 6 7 10 8 4 10 7 8 6 7 5 8 7 
8 7 9 12 8 7 3 9 9 9 7 11 6 9 7 10 8 8 13 9 
10 11 9 6 9 10 10 10 7 6 7 7 6 5 10 9 7 4 5 9 
6 5 8 7 9 10 11 8 7 7 11 5 7 12 9 11 9 8 4 7 
9 11 8 9 7 6 6 6 9 10 12 10 7 4 6 9 8 13 3 8 
8 5 9 5 7 8 3 8 9 10 7 6 6 10 7 5 7 3 8 8 
6 9 9 10 9 8 10 10 9 10 12 6 9 9 9 5 8 10 10 8 
6 9 8 10 8 6 7 6 8 7 5 10 9 6 9 9 7 3 11 7 
9 6 8 5 7 7 4 9 7 9 10 4 7 12 11 9 8 6 4 7 
10 7 8 10 7 9 5 9 9 8 5 4 9 10 6 9 9 13 7 8 
6 10 8 7 9 7 11 6 8 7 12 12 10 5 11 10 8 9 3 9 
9 10 8 9 9 6 11 10 7 6 4 13 10 6 6 8 8 10 6 7 
9 11 7 10 9 7 7 11 8 6 8 5 6 9 8 6 9 6 10 8 
9 11 9 9 9 8 6 11 9 10 10 5 7 5 11 6 9 10 7 8 
7 6 8 8 7 8 3 11 7 6 9 9 6 5 10 9 8 13 11 9 
9 11 7 11 9 6 8 6 7 7 6 13 10 12 11 11 9 9 10 9 
8 5 9 11 9 7 7 11 8 9 11 6 6 4 9 6 9 11 4 9 
8 11 7 8 8 9 8 5 8 6 12 8 9 7 9 6 8 13 4 8 
9 10 9 8 7 6 10 10 9 8 12 11 6 5 11 9 9 11 3 7 
8 8 7 9 7 7 3 11 8 6 5 5 10 10 6 7 7 10 10 8 
8 9 8 11 8 6 13 7 9 7 5 11 6 6 10 9 8 13 8 8 
8 8 8 5 9 8 4 8 8 8 9 9 7 6 8 9 7 13 10 9 
7 11 8 6 7 7 4 10 7 9 6 13 7 4 9 10 7 3 4 8 
8 8 8 6 8 7 4 6 9 7 10 3 6 4 8 11 9 5 6 7 
6 11 7 7 8 8 5 7 8 8 12 8 9 9 8 7 9 12 12 8 
7 8 9 9 8 7 13 7 7 10 9 11 8 10 9 10 7 9 4 7 
9 10 9 6 7 6 11 11 9 9 7 4 8 11 11 9 9 7 7 7 
8 10 7 10 9 6 9 9 8 10 7 12 7 7 8 8 8 11 6 8 
9 11 7 6 7 9 13 9 8 8 10 8 10 4 6 8 8 3 3 8 
10 8 7 6 8 9 5 5 8 9 10 8 8 10 7 7 7 9 4 7 
8 6 7 10 7 7 6 7 7 9 11 9 8 6 10 11 8 9 13 7 
8 11 9 10 9 8 3 9 8 8 4 10 6 10 9 7 7 7 11 7 
6 9 7 6 9 8 5 5 9 10 9 13 9 11 6 10 7 11 11 8 
8 11 8 10 9 10 6 6 7 8 9 11 7 4 10 9 7 3 10 7 
9 8 9 8 7 8 7 11 7 6 12 8 6 9 11 6 8 11 8 7 
8 11 7 4 9 8 3 6 8 8 11 8 7 9 8 9 8 8 9 7 
10 6 7 9 7 9 10 10 7 6 7 11 9 7 5 9 9 10 7 8 
6 10 8 6 7 7 9 8 8 10 12 9 10 10 5 11 9 4 11 8 
10 11 9 10 7 8 12 7 9 6 12 6 9 8 7 10 7 7 3 8 
8 5 7 5 9 10 12 6 9 7 8 6 8 4 6 10 8 11 3 9 
7 8 8 7 8 6 3 9 7 8 10 10 9 6 9 8 8 13 11 9 
6 9 7 8 9 6 6 9 8 6 9 5 10 8 10 8 9 8 4 8 
8 9 9 11 9 9 6 11 8 6 10 12 6 8 10 7 8 7 5 7 
10 11 7 4 7 8 9 8 7 9 12 13 6 5 10 5 8 4 13 8 
7 7 8 12 9 7 8 8 9 6 11 6 8 11 6 11 7 4 8 7 
7 10 9 10 9 8 8 6 8 6 8 3 8 10 5 10 8 10 10 9 
8 8 9 7 9 7 13 5 7 6 7 9 7 12 8 7 7 6 10 8 
6 9 9 5 7 9 13 5 9 10 8 4 7 9 9 11 9 3 11 8 
8 6 9 10 9 10 11 9 9 10 10 7 9 8 5 11 8 5 11 8 
7 9 9 11 8 10 12 9 7 10 9 9 8 4 8 7 7 6 12 9 
10 7 9 9 7 6 3 6 9 9 6 12 9 9 9 7 8 3 5 7 
9 6 7 6 7 6 10 11 7 8 5 9 7 4 5 9 7 3 8 9 
8 8 8 12 9 10 4 11 7 9 11 11 10 12 10 6 7 12 13 9 
6 7 7 4 7 10 9 11 7 9 12 4 8 4 6 7 9 3 5 8 
6 11 7 12 7 7 8 9 9 10 5 12 7 7 9 5 8 5 4 8 
10 7 9 6 8 7 12 7 8 6 7 10 9 5 10 11 8 4 10 9 
6 9 7 11 8 6 10 7 9 8 10 6 7 6 8 5 7 11 12 9 
10 11 7 5 7 8 11 7 9 8 11 13 8 4 9 5 9 3 9 7 
9 10 9 4 7 7 6 6 9 8 6 8 6 9 11 10 8 11 3 9 
6 6 8 4 8 6 8 9 9 8 11 13 7 9 6 6 7 4 12 8 
6 8 8 4 7 7 13 8 9 8 7 12 8 7 7 8 7 9 11 7 
6 11 8 10 8 10 11 6 9 6 12 7 9 10 7 6 8 3 9 9 
9 6 9 10 7 10 10 10 8 6 4 11 8 11 5 10 8 8 9 8 
10 6 9 9 7 6 13 5 8 7 5 9 9 8 5 9 8 7 11 8 
8 11 7 4 8 10 11 9 8 6 4 10 10 11 8 10 9 11 6 7 
10 11 7 11 8 9 4 5 8 9 7 6 9 12 11 7 8 3 9 8 
10 6 7 5 9 9 11 6 7 7 9 9 10 9 7 8 7 10 8 8 
10 7 8 4 8 7 9 11 8 10 8 4 8 6 9 11 8 3 13 8 
7 8 7 4 7 6 9 6 7 6 12 7 8 5 10 11 9 13 12 8 
9 6 9 10 7 6 10 6 7 8 12 6 8 5 9 9 9 9 8 7 
10 11 8 10 9 9 9 6 8 6 11 12 8 8 6 6 7 4 9 9 
6 8 9 5 7 9 11 10 7 8 10 4 10 11 10 8 7 9 6 9 
10 10 8 10 8 8 12 10 8 6 8 13 6 4 7 6 9 6 6 7 
9 5 8 7 7 8 9 5 9 6 12 6 10 9 10 7 9 12 7 7 
8 10 8 5 9 9 9 8 9 8 10 5 6 7 8 6 8 7 6 7 
10 5 9 10 9 10 13 5 9 10 4 5 7 4 5 9 7 7 3 9 
9 7 8 11 8 9 10 5 7 6 5 6 9 4 5 6 7 9 10 8 
7 11 9 9 9 10 13 6 9 9 4 11 6 5 5 8 7 11 7 7 
9 8 7 11 7 10 7 9 8 8 10 10 7 12 10 8 8 6 6 8 
6 11 8 9 7 8 10 11 8 6 8 6 6 12 7 11 7 6 13 8 
6 8 8 12 8 8 6 10 9 8 10 11 6 11 9 8 9 13 8 8 
9 9 8 12 9 7 7 5 7 6 11 10 8 8 8 5 9 10 10 9 
6 7 7 7 9 6 12 10 9 6 4 13 7 12 5 6 9 5 5 7 
7 8 7 4 9 9 6 10 7 7 9 8 6 11 8 11 8 4 8 7 
10 10 9 11 7 10 6 9 8 7 4 10 7 10 8 6 9 7 10 8 
6 9 8 7 8 10 9 11 8 6 10 10 8 6 11 7 7 8 12 8 
8 8 8 9 7 7 13 8 9 9 11 8 7 6 7 6 9 13 9 9 
10 9 8 9 9 9 5 11 8 6 12 10 8 9 5 5 7 5 4 8 
10 5 8 4 9 7 11 9 9 9 7 10 7 11 11 11 9 13 3 7 
8 5 9 4 8 8 11 5 9 6 8 5 7 6 8 8 7 3 12 7 
7 11 8 6 8 10 3 6 8 6 9 4 6 5 9 11 9 8 9 7 